20
98
3
25
50
117
64
28
69
35
24
150
1
21
3
100
64
116
102
155
80
62
34
136
77
55
62
172
3
42
92
24
142
23
88
1
121
33
81
89
159
26
159
150
133
162
44
111
141
155
99
118
139
165
128
40
28
124
61
96
16
52
60
7
45
82
156
57
6
63
112
46
126
88
149
133
152
178
94
161
50
171
165
109
30
43
138
57
83
109
144
81
167
157
93
66
64
87
125
21
